p cnf 386 460
6 5 -4 21 22 0
6 5 -4 21 -22 0
6 5 -4 -21 23 0
6 5 -4 -21 -23 0
2 1 -5 24 25 0
2 1 -5 24 -25 0
2 1 -5 -24 26 0
2 1 -5 -24 -26 0
-14 9 7 27 28 0
-14 9 7 27 -28 0
-14 9 7 -27 29 0
-14 9 7 -27 -29 0
10 -15 -20 30 31 0
10 -15 -20 30 -31 0
10 -15 -20 -30 32 0
10 -15 -20 -30 -32 0
-3 -14 -11 33 34 0
-3 -14 -11 33 -34 0
-3 -14 -11 -33 35 0
-3 -14 -11 -33 -35 0
2 4 -20 36 37 0
2 4 -20 36 -37 0
2 4 -20 -36 38 0
2 4 -20 -36 -38 0
-8 -10 17 39 40 0
-8 -10 17 39 -40 0
-8 -10 17 -39 41 0
-8 -10 17 -39 -41 0
-11 19 17 42 43 0
-11 19 17 42 -43 0
-11 19 17 -42 44 0
-11 19 17 -42 -44 0
-7 -18 -6 45 46 0
-7 -18 -6 45 -46 0
-7 -18 -6 -45 47 0
-7 -18 -6 -45 -47 0
-20 7 6 48 49 0
-20 7 6 48 -49 0
-20 7 6 -48 50 0
-20 7 6 -48 -50 0
18 -10 -1 51 52 0
18 -10 -1 51 -52 0
18 -10 -1 -51 53 0
18 -10 -1 -51 -53 0
12 -9 -10 54 55 0
12 -9 -10 54 -55 0
12 -9 -10 -54 56 0
12 -9 -10 -54 -56 0
-19 17 -14 57 58 0
-19 17 -14 57 -58 0
-19 17 -14 -57 59 0
-19 17 -14 -57 -59 0
2 3 15 60 61 0
2 3 15 60 -61 0
2 3 15 -60 62 0
2 3 15 -60 -62 0
3 -1 15 63 64 0
3 -1 15 63 -64 0
3 -1 15 -63 65 0
3 -1 15 -63 -65 0
-11 -15 10 66 67 0
-11 -15 10 66 -67 0
-11 -15 10 -66 68 0
-11 -15 10 -66 -68 0
-4 -10 -16 69 70 0
-4 -10 -16 69 -70 0
-4 -10 -16 -69 71 0
-4 -10 -16 -69 -71 0
10 -16 -11 72 73 0
10 -16 -11 72 -73 0
10 -16 -11 -72 74 0
10 -16 -11 -72 -74 0
-1 14 -19 75 76 0
-1 14 -19 75 -76 0
-1 14 -19 -75 77 0
-1 14 -19 -75 -77 0
-3 -4 -20 78 79 0
-3 -4 -20 78 -79 0
-3 -4 -20 -78 80 0
-3 -4 -20 -78 -80 0
17 -3 12 81 82 0
17 -3 12 81 -82 0
17 -3 12 -81 83 0
17 -3 12 -81 -83 0
15 17 -19 84 85 0
15 17 -19 84 -85 0
15 17 -19 -84 86 0
15 17 -19 -84 -86 0
-4 20 11 87 88 0
-4 20 11 87 -88 0
-4 20 11 -87 89 0
-4 20 11 -87 -89 0
10 -3 -16 90 91 0
10 -3 -16 90 -91 0
10 -3 -16 -90 92 0
10 -3 -16 -90 -92 0
-8 -1 7 93 94 0
-8 -1 7 93 -94 0
-8 -1 7 -93 95 0
-8 -1 7 -93 -95 0
14 15 -20 96 97 0
14 15 -20 96 -97 0
14 15 -20 -96 98 0
14 15 -20 -96 -98 0
-4 2 -13 99 100 0
-4 2 -13 99 -100 0
-4 2 -13 -99 101 0
-4 2 -13 -99 -101 0
-8 -2 -14 102 103 0
-8 -2 -14 102 -103 0
-8 -2 -14 -102 104 0
-8 -2 -14 -102 -104 0
7 20 -15 105 106 0
7 20 -15 105 -106 0
7 20 -15 -105 107 0
7 20 -15 -105 -107 0
-3 -14 12 108 109 0
-3 -14 12 108 -109 0
-3 -14 12 -108 110 0
-3 -14 12 -108 -110 0
-10 -13 -5 111 112 0
-10 -13 -5 111 -112 0
-10 -13 -5 -111 113 0
-10 -13 -5 -111 -113 0
-20 -18 -3 114 115 0
-20 -18 -3 114 -115 0
-20 -18 -3 -114 116 0
-20 -18 -3 -114 -116 0
-3 12 -17 117 118 0
-3 12 -17 117 -118 0
-3 12 -17 -117 119 0
-3 12 -17 -117 -119 0
20 4 8 120 121 0
20 4 8 120 -121 0
20 4 8 -120 122 0
20 4 8 -120 -122 0
6 4 -14 123 124 0
6 4 -14 123 -124 0
6 4 -14 -123 125 0
6 4 -14 -123 -125 0
10 13 3 126 127 0
10 13 3 126 -127 0
10 13 3 -126 128 0
10 13 3 -126 -128 0
-5 7 -4 129 130 0
-5 7 -4 129 -130 0
-5 7 -4 -129 131 0
-5 7 -4 -129 -131 0
-19 -4 6 132 133 0
-19 -4 6 132 -133 0
-19 -4 6 -132 134 0
-19 -4 6 -132 -134 0
-8 -16 13 135 136 0
-8 -16 13 135 -136 0
-8 -16 13 -135 137 0
-8 -16 13 -135 -137 0
-18 3 6 138 139 0
-18 3 6 138 -139 0
-18 3 6 -138 140 0
-18 3 6 -138 -140 0
-10 -13 20 141 142 0
-10 -13 20 141 -142 0
-10 -13 20 -141 143 0
-10 -13 20 -141 -143 0
-14 -2 -15 144 145 0
-14 -2 -15 144 -145 0
-14 -2 -15 -144 146 0
-14 -2 -15 -144 -146 0
-12 -16 -19 147 148 0
-12 -16 -19 147 -148 0
-12 -16 -19 -147 149 0
-12 -16 -19 -147 -149 0
-7 -19 11 150 151 0
-7 -19 11 150 -151 0
-7 -19 11 -150 152 0
-7 -19 11 -150 -152 0
2 -11 -8 153 154 0
2 -11 -8 153 -154 0
2 -11 -8 -153 155 0
2 -11 -8 -153 -155 0
11 6 14 156 157 0
11 6 14 156 -157 0
11 6 14 -156 158 0
11 6 14 -156 -158 0
16 -6 13 159 160 0
16 -6 13 159 -160 0
16 -6 13 -159 161 0
16 -6 13 -159 -161 0
19 9 1 162 163 0
19 9 1 162 -163 0
19 9 1 -162 164 0
19 9 1 -162 -164 0
8 14 7 165 166 0
8 14 7 165 -166 0
8 14 7 -165 167 0
8 14 7 -165 -167 0
-12 13 16 168 169 0
-12 13 16 168 -169 0
-12 13 16 -168 170 0
-12 13 16 -168 -170 0
5 -13 3 171 172 0
5 -13 3 171 -172 0
5 -13 3 -171 173 0
5 -13 3 -171 -173 0
-3 1 19 174 175 0
-3 1 19 174 -175 0
-3 1 19 -174 176 0
-3 1 19 -174 -176 0
20 -3 19 177 178 0
20 -3 19 177 -178 0
20 -3 19 -177 179 0
20 -3 19 -177 -179 0
-8 -19 -16 180 181 0
-8 -19 -16 180 -181 0
-8 -19 -16 -180 182 0
-8 -19 -16 -180 -182 0
-2 12 -11 183 184 0
-2 12 -11 183 -184 0
-2 12 -11 -183 185 0
-2 12 -11 -183 -185 0
6 -9 -16 186 187 0
6 -9 -16 186 -187 0
6 -9 -16 -186 188 0
6 -9 -16 -186 -188 0
6 -11 -14 189 190 0
6 -11 -14 189 -190 0
6 -11 -14 -189 191 0
6 -11 -14 -189 -191 0
12 -18 13 192 193 0
12 -18 13 192 -193 0
12 -18 13 -192 194 0
12 -18 13 -192 -194 0
-2 -15 -1 195 196 0
-2 -15 -1 195 -196 0
-2 -15 -1 -195 197 0
-2 -15 -1 -195 -197 0
-3 -14 17 198 199 0
-3 -14 17 198 -199 0
-3 -14 17 -198 200 0
-3 -14 17 -198 -200 0
-9 -7 -1 201 202 0
-9 -7 -1 201 -202 0
-9 -7 -1 -201 203 0
-9 -7 -1 -201 -203 0
19 9 13 204 205 0
19 9 13 204 -205 0
19 9 13 -204 206 0
19 9 13 -204 -206 0
18 6 -19 207 208 0
18 6 -19 207 -208 0
18 6 -19 -207 209 0
18 6 -19 -207 -209 0
2 -20 14 210 211 0
2 -20 14 210 -211 0
2 -20 14 -210 212 0
2 -20 14 -210 -212 0
-15 3 -11 213 214 0
-15 3 -11 213 -214 0
-15 3 -11 -213 215 0
-15 3 -11 -213 -215 0
-3 9 -17 216 217 0
-3 9 -17 216 -217 0
-3 9 -17 -216 218 0
-3 9 -17 -216 -218 0
14 15 -9 219 220 0
14 15 -9 219 -220 0
14 15 -9 -219 221 0
14 15 -9 -219 -221 0
-19 -8 -12 222 223 0
-19 -8 -12 222 -223 0
-19 -8 -12 -222 224 0
-19 -8 -12 -222 -224 0
1 12 -4 225 226 0
1 12 -4 225 -226 0
1 12 -4 -225 227 0
1 12 -4 -225 -227 0
17 -19 -15 228 229 0
17 -19 -15 228 -229 0
17 -19 -15 -228 230 0
17 -19 -15 -228 -230 0
-4 15 -5 231 232 0
-4 15 -5 231 -232 0
-4 15 -5 -231 233 0
-4 15 -5 -231 -233 0
16 3 6 234 235 0
16 3 6 234 -235 0
16 3 6 -234 236 0
16 3 6 -234 -236 0
18 -1 17 237 238 0
18 -1 17 237 -238 0
18 -1 17 -237 239 0
18 -1 17 -237 -239 0
20 1 -4 240 241 0
20 1 -4 240 -241 0
20 1 -4 -240 242 0
20 1 -4 -240 -242 0
19 -3 11 243 244 0
19 -3 11 243 -244 0
19 -3 11 -243 245 0
19 -3 11 -243 -245 0
9 12 19 246 247 0
9 12 19 246 -247 0
9 12 19 -246 248 0
9 12 19 -246 -248 0
8 4 -16 249 250 0
8 4 -16 249 -250 0
8 4 -16 -249 251 0
8 4 -16 -249 -251 0
-15 4 2 252 253 0
-15 4 2 252 -253 0
-15 4 2 -252 254 0
-15 4 2 -252 -254 0
-18 5 6 255 256 0
-18 5 6 255 -256 0
-18 5 6 -255 257 0
-18 5 6 -255 -257 0
-4 -9 -2 258 259 0
-4 -9 -2 258 -259 0
-4 -9 -2 -258 260 0
-4 -9 -2 -258 -260 0
2 5 9 261 262 0
2 5 9 261 -262 0
2 5 9 -261 263 0
2 5 9 -261 -263 0
11 16 -13 264 265 0
11 16 -13 264 -265 0
11 16 -13 -264 266 0
11 16 -13 -264 -266 0
-19 16 1 267 268 0
-19 16 1 267 -268 0
-19 16 1 -267 269 0
-19 16 1 -267 -269 0
2 -7 -8 270 271 0
2 -7 -8 270 -271 0
2 -7 -8 -270 272 0
2 -7 -8 -270 -272 0
-15 -4 -19 273 274 0
-15 -4 -19 273 -274 0
-15 -4 -19 -273 275 0
-15 -4 -19 -273 -275 0
-7 -16 20 276 277 0
-7 -16 20 276 -277 0
-7 -16 20 -276 278 0
-7 -16 20 -276 -278 0
-4 -11 5 279 280 0
-4 -11 5 279 -280 0
-4 -11 5 -279 281 0
-4 -11 5 -279 -281 0
-14 -16 1 282 283 0
-14 -16 1 282 -283 0
-14 -16 1 -282 284 0
-14 -16 1 -282 -284 0
-17 -5 -4 285 286 0
-17 -5 -4 285 -286 0
-17 -5 -4 -285 287 0
-17 -5 -4 -285 -287 0
20 15 14 288 289 0
20 15 14 288 -289 0
20 15 14 -288 290 0
20 15 14 -288 -290 0
-10 -16 -9 291 292 0
-10 -16 -9 291 -292 0
-10 -16 -9 -291 293 0
-10 -16 -9 -291 -293 0
294 295 297 301 309 0
294 295 297 301 -309 0
294 295 297 -301 310 0
294 295 297 -301 -310 0
294 295 -297 302 311 0
294 295 -297 302 -311 0
294 295 -297 -302 312 0
294 295 -297 -302 -312 0
294 -295 298 303 313 0
294 -295 298 303 -313 0
294 -295 298 -303 314 0
294 -295 298 -303 -314 0
294 -295 -298 304 315 0
294 -295 -298 304 -315 0
294 -295 -298 -304 316 0
294 -295 -298 -304 -316 0
-294 296 299 305 317 0
-294 296 299 305 -317 0
-294 296 299 -305 318 0
-294 296 299 -305 -318 0
-294 296 -299 306 319 0
-294 296 -299 306 -319 0
-294 296 -299 -306 320 0
-294 296 -299 -306 -320 0
-294 -296 300 307 321 0
-294 -296 300 307 -321 0
-294 -296 300 -307 322 0
-294 -296 300 -307 -322 0
-294 -296 -300 308 323 0
-294 -296 -300 308 -323 0
-294 -296 -300 -308 324 0
-294 -296 -300 -308 -324 0
325 326 328 332 340 0
325 326 328 332 -340 0
325 326 328 -332 341 0
325 326 328 -332 -341 0
325 326 -328 333 342 0
325 326 -328 333 -342 0
325 326 -328 -333 343 0
325 326 -328 -333 -343 0
325 -326 329 334 344 0
325 -326 329 334 -344 0
325 -326 329 -334 345 0
325 -326 329 -334 -345 0
325 -326 -329 335 346 0
325 -326 -329 335 -346 0
325 -326 -329 -335 347 0
325 -326 -329 -335 -347 0
-325 327 330 336 348 0
-325 327 330 336 -348 0
-325 327 330 -336 349 0
-325 327 330 -336 -349 0
-325 327 -330 337 350 0
-325 327 -330 337 -350 0
-325 327 -330 -337 351 0
-325 327 -330 -337 -351 0
-325 -327 331 338 352 0
-325 -327 331 338 -352 0
-325 -327 331 -338 353 0
-325 -327 331 -338 -353 0
-325 -327 -331 339 354 0
-325 -327 -331 339 -354 0
-325 -327 -331 -339 355 0
-325 -327 -331 -339 -355 0
356 357 359 363 371 0
356 357 359 363 -371 0
356 357 359 -363 372 0
356 357 359 -363 -372 0
356 357 -359 364 373 0
356 357 -359 364 -373 0
356 357 -359 -364 374 0
356 357 -359 -364 -374 0
356 -357 360 365 375 0
356 -357 360 365 -375 0
356 -357 360 -365 376 0
356 -357 360 -365 -376 0
356 -357 -360 366 377 0
356 -357 -360 366 -377 0
356 -357 -360 -366 378 0
356 -357 -360 -366 -378 0
-356 358 361 367 379 0
-356 358 361 367 -379 0
-356 358 361 -367 380 0
-356 358 361 -367 -380 0
-356 358 -361 368 381 0
-356 358 -361 368 -381 0
-356 358 -361 -368 382 0
-356 358 -361 -368 -382 0
-356 -358 362 369 383 0
-356 -358 362 369 -383 0
-356 -358 362 -369 384 0
-356 -358 362 -369 -384 0
-356 -358 -362 370 385 0
-356 -358 -362 370 -385 0
-356 -358 -362 -370 386 0
-356 -358 -362 -370 -386 0

